(set-logic QF_S)
(set-option :parse-transducers true)
(set-option :produce-models true)
(define-fun-rec toLower ((x String) (y String)) Bool
   (or (and (= x "") (= y ""))
       (and (not (= x "")) (not (= y ""))
           (= (char.code (str.head y))
               (ite (and (<= 65 (char.code (str.head x)))
                       (<= (char.code (str.head x)) 90))
                   (+ (char.code (str.head x)) 32)
                   (char.code (str.head x))))
           (toLower (str.tail x) (str.tail y))))
)
(declare-fun sym609 () String)
(assert (<= (str.len sym609) 11))
(declare-fun sym205 () String)
(assert (<= (str.len sym205) 11))
(declare-fun sym569 () String)
(assert (<= (str.len sym569) 11))
(declare-fun sym647 () String)
(assert (<= (str.len sym647) 11))
(declare-fun sym328 () String)
(assert (<= (str.len sym328) 11))
(declare-fun sym725 () String)
(assert (<= (str.len sym725) 11))
(declare-fun sym529 () String)
(assert (<= (str.len sym529) 11))
(declare-fun sym805 () String)
(assert (<= (str.len sym805) 11))
(declare-fun sym409 () String)
(assert (<= (str.len sym409) 11))
(declare-fun sym681 () String)
(assert (<= (str.len sym681) 11))
(declare-fun sym363 () String)
(assert (<= (str.len sym363) 11))
(declare-fun sym485 () String)
(assert (<= (str.len sym485) 11))
(declare-fun sym761 () String)
(assert (<= (str.len sym761) 11))
(declare-fun sym289 () String)
(assert (<= (str.len sym289) 11))
(declare-fun sym445 () String)
(assert (<= (str.len sym445) 11))
(declare-fun sym160 () String)
(assert (<= (str.len sym160) 11))
(declare-fun sym579 () String)
(assert (<= (str.len sym579) 11))
(declare-fun sym338 () String)
(assert (<= (str.len sym338) 11))
(declare-fun sym657 () String)
(assert (<= (str.len sym657) 11))
(declare-fun sym735 () String)
(assert (<= (str.len sym735) 11))
(declare-fun sym539 () String)
(assert (<= (str.len sym539) 11))
(declare-fun sym419 () String)
(assert (<= (str.len sym419) 11))
(declare-fun sym815 () String)
(assert (<= (str.len sym815) 11))
(declare-fun sym619 () String)
(assert (<= (str.len sym619) 11))
(declare-fun sym373 () String)
(assert (<= (str.len sym373) 11))
(declare-fun sym175 () String)
(assert (<= (str.len sym175) 11))
(declare-fun sym254 () String)
(assert (<= (str.len sym254) 11))
(declare-fun sym771 () String)
(assert (<= (str.len sym771) 11))
(declare-fun sym299 () String)
(assert (<= (str.len sym299) 11))
(declare-fun sym135 () String)
(assert (<= (str.len sym135) 11))
(declare-fun sym455 () String)
(assert (<= (str.len sym455) 11))
(declare-fun sym499 () String)
(assert (<= (str.len sym499) 11))
(declare-fun sym215 () String)
(assert (<= (str.len sym215) 11))
(declare-fun sym691 () String)
(assert (<= (str.len sym691) 11))
(declare-fun sym20 () String)
(assert (<= (str.len sym20) 11))
(declare-fun sym549 () String)
(assert (<= (str.len sym549) 11))
(declare-fun sym825 () String)
(assert (<= (str.len sym825) 11))
(declare-fun sym429 () String)
(assert (<= (str.len sym429) 11))
(declare-fun sym705 () String)
(assert (<= (str.len sym705) 11))
(declare-fun sym509 () String)
(assert (<= (str.len sym509) 11))
(declare-fun sym264 () String)
(assert (<= (str.len sym264) 11))
(declare-fun sym781 () String)
(assert (<= (str.len sym781) 11))
(declare-fun sym465 () String)
(assert (<= (str.len sym465) 11))
(declare-fun sym389 () String)
(assert (<= (str.len sym389) 11))
(declare-fun sym225 () String)
(assert (<= (str.len sym225) 11))
(declare-fun sym589 () String)
(assert (<= (str.len sym589) 11))
(declare-fun sym185 () String)
(assert (<= (str.len sym185) 11))
(declare-fun sym239 () String)
(assert (<= (str.len sym239) 11))
(declare-fun sym559 () String)
(assert (<= (str.len sym559) 11))
(declare-fun sym715 () String)
(assert (<= (str.len sym715) 11))
(declare-fun sym519 () String)
(assert (<= (str.len sym519) 11))
(declare-fun sym791 () String)
(assert (<= (str.len sym791) 11))
(declare-fun sym671 () String)
(assert (<= (str.len sym671) 11))
(declare-fun sym353 () String)
(assert (<= (str.len sym353) 11))
(declare-fun sym475 () String)
(assert (<= (str.len sym475) 11))
(declare-fun sym113 () String)
(assert (<= (str.len sym113) 11))
(declare-fun sym751 () String)
(assert (<= (str.len sym751) 11))
(declare-fun sym399 () String)
(assert (<= (str.len sym399) 11))
(declare-fun sym279 () String)
(assert (<= (str.len sym279) 11))
(declare-fun sym313 () String)
(assert (<= (str.len sym313) 11))
(declare-fun sym599 () String)
(assert (<= (str.len sym599) 11))
(declare-fun sym633 () String)
(assert (<= (str.len sym633) 11))
(declare-fun sym150 () String)
(assert (<= (str.len sym150) 11))
(declare-fun sym195 () String)
(assert (<= (str.len sym195) 11))
(declare-fun L27  () String)
(declare-fun L39  () String)
(declare-fun L19  () String)
(declare-fun L23  () String)
(declare-fun L67  () String)
(declare-fun L35  () String)
(declare-fun L79  () String)
(declare-fun L126  () String)
(declare-fun L47  () String)
(declare-fun L15  () String)
(declare-fun L59  () String)
(declare-fun L7  () String)
(declare-fun L63  () String)
(declare-fun L31  () String)
(declare-fun L75  () String)
(declare-fun L43  () String)
(declare-fun L87  () String)
(declare-fun L11  () String)
(declare-fun L55  () String)
(declare-fun L99  () String)
(declare-fun L3  () String)
(declare-fun L71  () String)
(declare-fun L83  () String)
(declare-fun L51  () String)
(declare-fun L95  () String)
(declare-fun L122  () String)
(declare-fun L91  () String)
(declare-fun L38  () String)
(declare-fun L18  () String)
(declare-fun L107  () String)
(declare-fun L115  () String)
(declare-fun L22  () String)
(declare-fun L4  () String)
(declare-fun L0  () String)
(declare-fun L103  () String)
(declare-fun L111  () String)
(declare-fun L49  () String)
(declare-fun L17  () String)
(declare-fun L29  () String)
(declare-fun L45  () String)
(declare-fun L89  () String)
(declare-fun L13  () String)
(declare-fun L57  () String)
(declare-fun L9  () String)
(declare-fun L25  () String)
(declare-fun L69  () String)
(declare-fun L37  () String)
(declare-fun L41  () String)
(declare-fun L85  () String)
(declare-fun L53  () String)
(declare-fun L97  () String)
(declare-fun L5  () String)
(declare-fun L21  () String)
(declare-fun L65  () String)
(declare-fun L33  () String)
(declare-fun L77  () String)
(declare-fun L81  () String)
(declare-fun L93  () String)
(declare-fun L1  () String)
(declare-fun L61  () String)
(declare-fun L73  () String)
(declare-fun L120  () String)
(declare-fun L124  () String)
(declare-fun L56  () String)
(declare-fun L117  () String)
(declare-fun L24  () String)
(declare-fun L105  () String)
(declare-fun L6  () String)
(declare-fun L109  () String)
(declare-fun L2  () String)
(declare-fun L113  () String)
(declare-fun L101  () String)
(define-fun Alphabet () RegLan 
	(re.* (re.union (str.to_re "A") (str.to_re "B") (str.to_re "C") (str.to_re "D") (str.to_re "E") (str.to_re "F") (str.to_re "G") (str.to_re "H") (str.to_re "I") (str.to_re "J") (str.to_re "K") (str.to_re "L") (str.to_re "M") (str.to_re "N") (str.to_re "O") (str.to_re "P") (str.to_re "Q") (str.to_re "R") (str.to_re "S") (str.to_re "T") (str.to_re "U") (str.to_re "V") (str.to_re "W") (str.to_re "X") (str.to_re "Y") (str.to_re "Z") (str.to_re "a") (str.to_re "b") (str.to_re "c") (str.to_re "d") (str.to_re "e") (str.to_re "f") (str.to_re "g") (str.to_re "h") (str.to_re "i") (str.to_re "j") (str.to_re "k") (str.to_re "l") (str.to_re "m") (str.to_re "n") (str.to_re "o") (str.to_re "p") (str.to_re "q") (str.to_re "r") (str.to_re "s") (str.to_re "t") (str.to_re "u") (str.to_re "v") (str.to_re "w") (str.to_re "x") (str.to_re "y") (str.to_re "z") ))
)
(assert (toLower sym225  L101 ))
(assert (toLower sym529  L113 ))
(assert (toLower sym751  L2 ))
(assert (toLower sym761  L109 ))
(assert (toLower sym20  L6 ))
(assert (toLower sym455  L105 ))
(assert (toLower "type"  L24 ))
(assert (toLower sym499  L117 ))
(assert (toLower "option"  L56 ))
(assert (toLower sym445  L124 ))
(assert (toLower sym619  L120 ))
(assert (toLower sym465  L73 ))
(assert (toLower sym539  L61 ))
(assert (toLower "database"  L1 ))
(assert (toLower sym579  L93 ))
(assert (toLower sym313  L81 ))
(assert (toLower sym485  L77 ))
(assert (toLower sym135  L33 ))
(assert (toLower sym791  L65 ))
(assert (toLower sym419  L21 ))
(assert (toLower "description"  L5 ))
(assert (toLower sym353  L97 ))
(assert (toLower sym715  L53 ))
(assert (toLower sym599  L85 ))
(assert (toLower sym815  L41 ))
(assert (toLower sym825  L37 ))
(assert (toLower sym609  L69 ))
(assert (toLower sym254  L25 ))
(assert (toLower sym264  L9 ))
(assert (toLower sym399  L57 ))
(assert (toLower sym509  L13 ))
(assert (toLower sym771  L89 ))
(assert (toLower sym705  L45 ))
(assert (toLower sym691  L29 ))
(assert (toLower sym195  L17 ))
(assert (toLower sym475  L49 ))
(assert (toLower sym735  L111 ))
(assert (toLower sym389  L103 ))
(assert (toLower sym113  L0 ))
(assert (toLower sym185  L4 ))
(assert (toLower "length"  L22 ))
(assert (toLower sym409  L115 ))
(assert (toLower sym299  L107 ))
(assert (toLower "table"  L18 ))
(assert (toLower "field"  L38 ))
(assert (toLower sym429  L91 ))
(assert (toLower sym175  L122 ))
(assert (toLower sym725  L95 ))
(assert (toLower sym805  L51 ))
(assert (toLower sym279  L83 ))
(assert (toLower sym239  L71 ))
(assert (toLower "name"  L3 ))
(assert (toLower sym215  L99 ))
(assert (toLower sym589  L55 ))
(assert (toLower sym559  L11 ))
(assert (toLower sym519  L87 ))
(assert (toLower sym289  L43 ))
(assert (toLower sym681  L75 ))
(assert (toLower sym633  L31 ))
(assert (toLower sym657  L63 ))
(assert (toLower sym671  L7 ))
(assert (toLower sym160  L59 ))
(assert (toLower sym647  L15 ))
(assert (toLower sym781  L47 ))
(assert (toLower sym569  L126 ))
(assert (toLower sym549  L79 ))
(assert (toLower sym150  L35 ))
(assert (toLower sym328  L67 ))
(assert (toLower sym373  L23 ))
(assert (toLower sym205  L19 ))
(assert (toLower sym363  L39 ))
(assert (toLower sym338  L27 ))

(assert (str.in_re sym195 Alphabet))
(assert (str.in_re sym150 Alphabet))
(assert (str.in_re sym633 Alphabet))
(assert (str.in_re sym599 Alphabet))
(assert (str.in_re sym313 Alphabet))
(assert (str.in_re sym279 Alphabet))
(assert (str.in_re sym399 Alphabet))
(assert (str.in_re sym751 Alphabet))
(assert (str.in_re sym113 Alphabet))
(assert (str.in_re sym475 Alphabet))
(assert (str.in_re sym353 Alphabet))
(assert (str.in_re sym671 Alphabet))
(assert (str.in_re sym791 Alphabet))
(assert (str.in_re sym519 Alphabet))
(assert (str.in_re sym715 Alphabet))
(assert (str.in_re sym559 Alphabet))
(assert (str.in_re sym239 Alphabet))
(assert (str.in_re sym185 Alphabet))
(assert (str.in_re sym589 Alphabet))
(assert (str.in_re sym225 Alphabet))
(assert (str.in_re sym389 Alphabet))
(assert (str.in_re sym465 Alphabet))
(assert (str.in_re sym781 Alphabet))
(assert (str.in_re sym264 Alphabet))
(assert (str.in_re sym509 Alphabet))
(assert (str.in_re sym705 Alphabet))
(assert (str.in_re sym429 Alphabet))
(assert (str.in_re sym825 Alphabet))
(assert (str.in_re sym549 Alphabet))
(assert (str.in_re sym20 Alphabet))
(assert (str.in_re sym691 Alphabet))
(assert (str.in_re sym215 Alphabet))
(assert (str.in_re sym499 Alphabet))
(assert (str.in_re sym455 Alphabet))
(assert (str.in_re sym135 Alphabet))
(assert (str.in_re sym299 Alphabet))
(assert (str.in_re sym771 Alphabet))
(assert (str.in_re sym254 Alphabet))
(assert (str.in_re sym175 Alphabet))
(assert (str.in_re sym373 Alphabet))
(assert (str.in_re sym619 Alphabet))
(assert (str.in_re sym815 Alphabet))
(assert (str.in_re sym419 Alphabet))
(assert (str.in_re sym539 Alphabet))
(assert (str.in_re sym735 Alphabet))
(assert (str.in_re sym657 Alphabet))
(assert (str.in_re sym338 Alphabet))
(assert (str.in_re sym579 Alphabet))
(assert (str.in_re sym160 Alphabet))
(assert (str.in_re sym445 Alphabet))
(assert (str.in_re sym289 Alphabet))
(assert (str.in_re sym761 Alphabet))
(assert (str.in_re sym485 Alphabet))
(assert (str.in_re sym363 Alphabet))
(assert (str.in_re sym681 Alphabet))
(assert (str.in_re sym409 Alphabet))
(assert (str.in_re sym805 Alphabet))
(assert (str.in_re sym529 Alphabet))
(assert (str.in_re sym725 Alphabet))
(assert (str.in_re sym328 Alphabet))
(assert (str.in_re sym647 Alphabet))
(assert (str.in_re sym569 Alphabet))
(assert (str.in_re sym205 Alphabet))
(assert (str.in_re sym609 Alphabet))
(assert (= L0 L1 ))
(assert (not (= L2 L3 )))
(assert (not (= L4 L5 )))
(assert (= L6 "html" ))
(assert (not (= L7 L3 )))
(assert (= L9 L5 ))
(assert (not (= L11 L5 )))
(assert (not (= L13 L5 )))
(assert (not (= L15 L3 )))
(assert (not (= L17 L18 )))
(assert (not (= L19 L3 )))
(assert (not (= L21 L22 )))
(assert (= L23 L24 ))
(assert (not (= L25 L3 )))
(assert (= L27 L5 ))
(assert (= L29 L24 ))
(assert (= L31 L3 ))
(assert (= L33 L3 ))
(assert (not (= L35 L3 )))
(assert (not (= L37 L38 )))
(assert (not (= L39 L5 )))
(assert (not (= L41 L5 )))
(assert (not (= L43 L5 )))
(assert (not (= L45 L3 )))
(assert (not (= L47 L22 )))
(assert (not (= L49 L22 )))
(assert (not (= L51 L3 )))
(assert (not (= L53 L5 )))
(assert (not (= L55 L56 )))
(assert (not (= L57 L5 )))
(assert (= L59 L5 ))
(assert (not (= L61 L56 )))
(assert (= L63 L5 ))
(assert (= L65 L56 ))
(assert (not (= L67 L3 )))
(assert (not (= L69 L5 )))
(assert (= L71 L3 ))
(assert (not (= L73 L24 )))
(assert (not (= L75 L5 )))
(assert (= L77 L56 ))
(assert (not (= L79 L3 )))
(assert (= L81 L3 ))
(assert (not (= L83 L3 )))
(assert (not (= L85 L3 )))
(assert (not (= L87 L24 )))
(assert (not (= L89 L24 )))
(assert (= L91 L56 ))
(assert (not (= L93 L22 )))
(assert (not (= L95 L24 )))
(assert (not (= L97 L3 )))
(assert (not (= L99 L5 )))
(assert (= L101 L18 ))
(assert (not (= L103 L3 )))
(assert (not (= L105 L5 )))
(assert (= L107 L38 ))
(assert (not (= L109 L5 )))
(assert (= L111 L22 ))
(assert (not (= L113 L22 )))
(assert (not (= L115 L24 )))
(assert (not (= L117 L3 )))
(assert (not (= L6 "sql" )))
(assert (= L120 L38 ))
(assert (not (= L122 L3 )))
(assert (not (= L124 L3 )))
(assert (not (= L126 L24 )))
(check-sat)
(get-model)
(exit)
